out/3x5_in-2025_04_17-23_06_50/stage_3_layout.param.solution
language ESSENCE' 1.0
letting assemblers be [[0, 0, 0], 
[0, 0, 0], 
[2, 0, 0], 
[0, 0, 0], 
[0, 0, 0]]
letting assignments be [7]
letting carrying be [[1, 1, 2], 
[1, 1, 2], 
[2, 2, 2], 
[2, 2, 2], 
[2, 2, 2]]
letting conveyors be [[3, 2, 1], 
[0, 0, 0], 
[0, 0, 0], 
[0, 0, 0], 
[0, 0, 0]]
letting inserters be [[0, 0, 0], 
[2, 2, 1], 
[0, 0, 0], 
[0, 0, 0], 
[0, 0, 0]]
letting routes be [[1, 2, 2], 
[2, 3, 1], 
[0, 0, 0], 
[0, 0, 0], 
[0, 0, 0]]
